proyfinal/src/viki/013/experimentInOfficeAgust.take6.output/4a2e3b55-3c43-4c33-96ab-dc23c0c3a88b.als.dat
{'cnf.clauses': '118081',
 'cnf.totvars': '69608',
 'conflict literals': '1',
 'conflicts': '2',
 'decisions': '424',
 'memused.mb': '16.66',
 'outcome': 'UNSAT',
 'propagations': '18873',
 'restarts': '1',
 'solver.msecs': 34,
 'task.msecs': 84}
