proyfinal/src/viki/013/experimentInOfficeAgust.take6.output/4a2e3b55-3c43-4c33-96ab-dc23c0c3a88b.als.out
Reading from standard input... Use '--help' for help.
============================[ Problem Statistics ]=============================
|                                                                             |
|  Number of variables:         69608                                         |
|  Number of clauses:          118081                                         |
|  Parse time:                   0.03 s                                       |
|                                                                             |
============================[ Search Statistics ]==============================
| Conflicts |          ORIGINAL         |          LEARNT          | Progress |
|           |    Vars  Clauses Literals |    Limit  Clauses Lit/Cl |          |
===============================================================================
===============================================================================
restarts              : 1
conflicts             : 2              (57 /sec)
decisions             : 424            (0.00 % random) (12169 /sec)
propagations          : 18873          (541658 /sec)
conflict literals     : 1              (0.00 % deleted)
Memory used           : 16.66 MB
CPU time              : 0.034843 s

UNSATISFIABLE
